Problem:    
Rows:       260
Columns:    89 (72 integer, 72 binary)
Non-zeros:  812
Status:     INTEGER OPTIMAL
Objective:  value = 32.396555 (MINimum)

   No.   Row name        Activity     Lower bound   Upper bound
------ ------------    ------------- ------------- -------------
     1 r.5                    1032.4             0               
     2 r.6                  -991.867      -992.167               
     3 r.7                   32.3966             0               
     4 r.8                   11.9149      -980.786               
     5 r.9                    1032.4             0               
     6 r.10                 -983.542      -992.163               
     7 r.11                  32.3966             0               
     8 r.12                  16.4581      -981.002               
     9 r.13                   1032.4             0               
    10 r.14                 -991.379      -999.512               
    11 r.15                  32.3966             0               
    12 r.16                  11.9149      -998.224               
    13 r.17                  32.3966             0               
    14 r.18                 -998.885      -999.186               
    15 r.19                   1032.4             0               
    16 r.20                  -988.57      -997.847               
    17 r.21                  32.3966             0               
    18 r.22                  11.9149      -996.319               
    19 r.23                   1032.4             0               
    20 r.24                 -990.724      -991.024               
    21 r.25                   1032.4             0               
    22 r.26                   -999.7        -999.7               
    23 r.27                  32.3966             0               
    24 r.28                   0.3004      -999.185               
    25 r.29                   1032.4             0               
    26 r.30                 -967.603      -984.062               
    27 r.31                  32.3966             0               
    28 r.32                  32.3966      -941.016               
    29 r.33                  32.3966             0               
    30 r.34                  32.3966      -992.254               
    31 r.35                   1032.4             0               
    32 r.36                 -967.603      -979.518               
    33 r.37                        1             1             = 
    34 r.38                        1             1             = 
    35 r.39                        1             1             = 
    36 r.40                        1             1             = 
    37 r.41                        1             1             = 
    38 r.42                        1             1             = 
    39 r.43                        1             1             = 
    40 r.44                        1             1             = 
    41 r.45                        2             2               
    42 r.46                       -2         -1001               
    43 r.47                 -991.675      -992.163               
    44 r.48                     1000             2               
    45 r.49                    -1000         -1001               
    46 r.50                  2004.54      -981.002               
    47 r.51                        2             2               
    48 r.52                       -2         -1001               
    49 r.53                 -999.512      -999.512               
    50 r.54                     1000             2               
    51 r.55                    -1000         -1001               
    52 r.56                     2000      -998.224               
    53 r.57                     1001             2               
    54 r.58                    -1001         -1001               
    55 r.59                  992.981      -999.186               
    56 r.60                     1001             2               
    57 r.61                    -1001         -1001               
    58 r.62                  1999.51      -997.847               
    59 r.63                     1001             2               
    60 r.64                    -1001         -1001               
    61 r.65                  2003.78      -996.319               
    62 r.66                     1001             2               
    63 r.67                    -1001         -1001               
    64 r.68                  1997.36      -991.024               
    65 r.69                 -992.167      -992.167               
    66 r.70                  11.6145      -980.786               
    67 r.71                 -992.167      -992.167               
    68 r.72                  11.6145      -980.786               
    69 r.73                 -975.737      -984.062               
    70 r.74                  24.2632      -941.016               
    71 r.75                 -979.518      -984.062               
    72 r.76                  20.4817      -941.016               
    73 r.77                  24.2632      -992.254               
    74 r.78                 -975.737      -979.518               
    75 r.79                  20.4817      -992.254               
    76 r.80                 -979.518      -979.518               
    77 r.81                        2             2               
    78 r.82                       -2         -1001               
    79 r.83                  991.675         7.833               
    80 r.84                     1000             2               
    81 r.85                    -1000         -1001               
    82 r.86                  1995.46       19.2139               
    83 r.87                        2             2               
    84 r.88                       -2         -1001               
    85 r.89                 -7.83701      -999.512               
    86 r.90                     1000             2               
    87 r.91                    -1000         -1001               
    88 r.92                  1995.46      -998.224               
    89 r.93                     1001             2               
    90 r.94                    -1001         -1001               
    91 r.95                  984.656      -999.186               
    92 r.96                     1001             2               
    93 r.97                    -1001         -1001               
    94 r.98                  1994.97      -997.847               
    95 r.99                     1001             2               
    96 r.100                   -1001         -1001               
    97 r.101                 1995.46      -996.319               
    98 r.102                    1001             2               
    99 r.103                   -1001         -1001               
   100 r.104                 1992.82      -991.024               
   101 r.105                -983.842      -992.163               
   102 r.106                 16.1577      -981.002               
   103 r.107                -983.842      -992.163               
   104 r.108                 16.1577      -981.002               
   105 r.109                -984.062      -984.062               
   106 r.110                 15.9384      -941.016               
   107 r.111                -984.062      -984.062               
   108 r.112                 15.9384      -941.016               
   109 r.113                    1001             2               
   110 r.114                   -1001         -1001               
   111 r.115                 2015.94      -992.254               
   112 r.116                    1001             2               
   113 r.117                   -1001         -1001               
   114 r.118                 2015.94      -979.518               
   115 r.119                       2             2               
   116 r.120                      -2         -1001               
   117 r.121                 999.512         7.833               
   118 r.122                    1000             2               
   119 r.123                   -1000         -1001               
   120 r.124                    2000       19.2139               
   121 r.125                       2             2               
   122 r.126                      -2         -1001               
   123 r.127                 7.83701       7.83701               
   124 r.128                    1000             2               
   125 r.129                   -1000         -1001               
   126 r.130                 2004.54        18.998               
   127 r.131                    1001             2               
   128 r.132                   -1001         -1001               
   129 r.133                 992.493      -999.186               
   130 r.134                    1001             2               
   131 r.135                   -1001         -1001               
   132 r.136                 1999.51      -997.847               
   133 r.137                    1001             2               
   134 r.138                   -1001         -1001               
   135 r.139                 2003.29      -996.319               
   136 r.140                    1001             2               
   137 r.141                   -1001         -1001               
   138 r.142                 1997.36      -991.024               
   139 r.143                -991.679      -999.512               
   140 r.144                 11.6145      -998.224               
   141 r.145                -991.679      -999.512               
   142 r.146                 11.6145      -998.224               
   143 r.147                -976.225      -984.062               
   144 r.148                 23.7754      -941.016               
   145 r.149                -979.518      -984.062               
   146 r.150                 20.4817      -941.016               
   147 r.151                 23.7754      -992.254               
   148 r.152                -976.225      -979.518               
   149 r.153                 20.4817      -992.254               
   150 r.154                -979.518      -979.518               
   151 r.155                    1001             2               
   152 r.156                   -1001         -1001               
   153 r.157                 3007.02         7.833               
   154 r.158                    1001             2               
   155 r.159                   -1001         -1001               
   156 r.160                 2000.49       19.2139               
   157 r.161                    1001             2               
   158 r.162                   -1001         -1001               
   159 r.163                 3015.34       7.83701               
   160 r.164                    1001             2               
   161 r.165                   -1001         -1001               
   162 r.166                 2005.03        18.998               
   163 r.167                    1001             2               
   164 r.168                   -1001         -1001               
   165 r.169                 3007.51      0.487722               
   166 r.170                    1001             2               
   167 r.171                   -1001         -1001               
   168 r.172                 2000.49       1.77581               
   169 r.173                    1000             2               
   170 r.174                   -1000         -1001               
   171 r.175                  3010.8      -996.319               
   172 r.176                       2             2               
   173 r.177                      -2         -1001               
   174 r.178                -2.15334      -991.024               
   175 r.179                -999.186      -999.186               
   176 r.180                -988.871      -997.847               
   177 r.181                -999.186      -999.186               
   178 r.182                -988.871      -997.847               
   179 r.183                  31.282      -984.062               
   180 r.184                 1031.28      -941.016               
   181 r.185                -979.033      -984.062               
   182 r.186                 20.9669      -941.016               
   183 r.187                    1000             2               
   184 r.188                   -1000         -1001               
   185 r.189                 3031.28      -992.254               
   186 r.190                       2             2               
   187 r.191                      -2         -1001               
   188 r.192                -979.033      -979.518               
   189 r.193                    1001             2               
   190 r.194                   -1001         -1001               
   191 r.195                 1996.22         7.833               
   192 r.196                    1001             2               
   193 r.197                   -1001         -1001               
   194 r.198                 2002.64       19.2139               
   195 r.199                    1001             2               
   196 r.200                   -1001         -1001               
   197 r.201                 2004.54       7.83701               
   198 r.202                    1001             2               
   199 r.203                   -1001         -1001               
   200 r.204                 2007.18        18.998               
   201 r.205                    1001             2               
   202 r.206                   -1001         -1001               
   203 r.207                 1996.71      0.487722               
   204 r.208                    1001             2               
   205 r.209                   -1001         -1001               
   206 r.210                 2002.64       1.77581               
   207 r.211                    1000             2               
   208 r.212                   -1000         -1001               
   209 r.213                   989.2        0.8142               
   210 r.214                       2             2               
   211 r.215                      -2         -1001               
   212 r.216                 2.15334       2.15334               
   213 r.217                 11.6145      -996.319               
   214 r.218                -991.024      -991.024               
   215 r.219                 11.6145      -996.319               
   216 r.220                -991.024      -991.024               
   217 r.221                    1001             2               
   218 r.222                   -1001         -1001               
   219 r.223                 2020.48      -984.062               
   220 r.224                    1001             2               
   221 r.225                   -1001         -1001               
   222 r.226                 2023.12      -941.016               
   223 r.227                 20.4817      -992.254               
   224 r.228                -979.518      -979.518               
   225 r.229                 23.1202      -992.254               
   226 r.230                 -976.88      -979.518               
   227 r.231                -967.904      -984.062               
   228 r.232                 32.0962      -941.016               
   229 r.233                -967.904      -984.062               
   230 r.234                 32.0962      -941.016               
   231 r.235                    1001             2               
   232 r.236                   -1001         -1001               
   233 r.237                 1979.52       3.68127               
   234 r.238                    1001             2               
   235 r.239                   -1001         -1001               
   236 r.240                 1976.88       8.97596               
   237 r.241                    1001             2               
   238 r.242                   -1001         -1001               
   239 r.243                    2000      -992.254               
   240 r.244                    1001             2               
   241 r.245                   -1001         -1001               
   242 r.246                    2000      -979.518               
   243 r.247                    1001             2               
   244 r.248                   -1001         -1001               
   245 r.249                 1984.06       7.83701               
   246 r.250                    1001             2               
   247 r.251                   -1001         -1001               
   248 r.252                 1984.06        18.998               
   249 r.253                    1000             2               
   250 r.254                   -1000         -1001               
   251 r.255                 968.718        0.8142               
   252 r.256                       2             2               
   253 r.257                      -2         -1001               
   254 r.258                 979.033       2.15334               
   255 r.259                    1001             2               
   256 r.260                   -1001         -1001               
   257 r.261                    2000       15.9384               
   258 r.262                    1001             2               
   259 r.263                   -1001         -1001               
   260 r.264                    2000       58.9836               

   No. Column name       Activity     Lower bound   Upper bound
------ ------------    ------------- ------------- -------------
     1 tt                    32.3966             0               
     2 s_1_1        *              1             0             1 
     3 t_1_1                 24.2632             0               
     4 s_1_8        *              0             0             1 
     5 s_1_7        *              1             0             1 
     6 s_2_1        *              0             0             1 
     7 t_2_1                 20.4817             0               
     8 s_2_8        *              1             0             1 
     9 s_2_7        *              0             0             1 
    10 s_1_2        *              1             0             1 
    11 t_1_2                 15.9384             0               
    12 s_2_2        *              0             0             1 
    13 t_2_2                 15.9384             0               
    14 s_1_3        *              1             0             1 
    15 t_1_3                 23.7754             0               
    16 s_2_3        *              0             0             1 
    17 t_2_3                 20.4817             0               
    18 s_1_4        *              0             0             1 
    19 t_1_4                 1031.28             0               
    20 s_2_4        *              1             0             1 
    21 t_2_4                 20.9669             0               
    22 s_1_5        *              0             0             1 
    23 t_1_5                 20.4817             0               
    24 s_2_5        *              1             0             1 
    25 t_2_5                 23.1202             0               
    26 s_1_6        *              1             0             1 
    27 t_1_6                 32.0962             0               
    28 s_2_6        *              0             0             1 
    29 t_2_6                 32.0962             0               
    30 t_1_7                       0             0               
    31 t_2_7                       0             0               
    32 t_1_8                       0             0               
    33 t_2_8                       0             0               
    34 r_1_1_2      *              0             0             1 
    35 u_1_1_2      *              1             0             1 
    36 r_2_1_2      *              1             0             1 
    37 u_2_1_2      *              0             0             1 
    38 r_1_1_3      *              0             0             1 
    39 u_1_1_3      *              1             0             1 
    40 r_2_1_3      *              1             0             1 
    41 u_2_1_3      *              0             0             1 
    42 r_1_1_4      *              1             0             1 
    43 u_1_1_4      *              0             0             1 
    44 r_2_1_4      *              1             0             1 
    45 u_2_1_4      *              0             0             1 
    46 r_1_1_5      *              1             0             1 
    47 u_1_1_5      *              0             0             1 
    48 r_2_1_5      *              1             0             1 
    49 u_2_1_5      *              0             0             1 
    50 r_1_2_3      *              0             0             1 
    51 u_1_2_3      *              0             0             1 
    52 r_2_2_3      *              1             0             1 
    53 u_2_2_3      *              0             0             1 
    54 r_1_2_4      *              1             0             1 
    55 u_1_2_4      *              0             0             1 
    56 r_2_2_4      *              1             0             1 
    57 u_2_2_4      *              0             0             1 
    58 r_1_2_5      *              1             0             1 
    59 u_1_2_5      *              0             0             1 
    60 r_2_2_5      *              1             0             1 
    61 u_2_2_5      *              0             0             1 
    62 r_1_2_8      *              1             0             1 
    63 u_1_2_8      *              0             0             1 
    64 r_2_2_8      *              1             0             1 
    65 u_2_2_8      *              0             0             1 
    66 r_1_3_4      *              1             0             1 
    67 u_1_3_4      *              0             0             1 
    68 r_2_3_4      *              1             0             1 
    69 u_2_3_4      *              0             0             1 
    70 r_1_3_5      *              1             0             1 
    71 u_1_3_5      *              0             0             1 
    72 r_2_3_5      *              1             0             1 
    73 u_2_3_5      *              0             0             1 
    74 r_1_4_5      *              1             0             1 
    75 u_1_4_5      *              0             0             1 
    76 r_2_4_5      *              0             0             1 
    77 u_2_4_5      *              0             0             1 
    78 r_1_4_8      *              1             0             1 
    79 u_1_4_8      *              0             0             1 
    80 r_2_4_8      *              0             0             1 
    81 u_2_4_8      *              1             0             1 
    82 r_1_5_7      *              1             0             1 
    83 u_1_5_7      *              0             0             1 
    84 r_2_5_7      *              1             0             1 
    85 u_2_5_7      *              0             0             1 
    86 r_1_7_8      *              1             0             1 
    87 u_1_7_8      *              0             0             1 
    88 r_2_7_8      *              1             0             1 
    89 u_2_7_8      *              0             0             1 

Integer feasibility conditions:

KKT.PE: max.abs.err = 4.55e-13 on row 153
        max.rel.err = 7.50e-17 on row 153
        High quality

KKT.PB: max.abs.err = 1.14e-13 on row 175
        max.rel.err = 1.41e-16 on row 212
        High quality

End of output
